8,0	0,0	9,0	14,9	0,0	0,0	0,0	0,0	0,0	13,8
9,6	16,8	0,0	9,8	5,5	0,0	0,0	13,0	0,0	0,0
0,0	0,0	8,9	0,0	18,3	15,3	0,0	0,0	19,5	0,0
12,1	0,0	14,2	0,0	0,0	0,0	6,5	0,0	0,0	0,0
0,0	9,2	0,0	16,4	15,3	0,0	0,0	17,7	0,0	0,0
0,0	18,4	13,5	0,0	6,5	18,0	0,0	0,0	13,3	0,0
0,0	7,2	0,0	19,5	0,0	0,0	8,5	0,0	0,0	14,4
10,7	0,0	10,7	0,0	0,0	0,0	0,0	0,0	0,0	13,4
0,0	5,1	0,0	7,5	5,5	0,0	0,0	10,0	0,0	0,0
0,0	0,0	11,9	0,0	0,0	6,1	7,2	0,0	0,0	14,9
									
3,6	5,0	4,5	4,1	4,6	3,3	4,4	4,2	2,6	3,8
